TYPE : Vertex Cover
DIMENSION: 31
EDGE_DATA_SECTION:
0 1
0 6
0 14
0 15
0 18
0 29
1 2
1 4
1 26
2 21
3 17
3 22
3 29
3 30
4 10
4 13
4 14
4 18
4 26
5 30
6 9
6 13
6 16
6 22
6 26
7 11
7 24
7 25
7 28
8 10
8 14
8 26
8 29
9 11
9 12
9 18
9 23
9 27
9 28
9 30
10 12
10 13
10 16
10 20
10 27
11 13
11 15
11 18
12 30
13 23
13 25
13 26
14 27
15 21
15 27
15 28
15 29
16 17
16 22
16 30
17 20
17 26
18 24
19 25
19 30
20 30
21 22
22 23
23 30
24 25
25 28
26 27
27 29
-1
VERTEX_DEGREE:
6.0 4.0 2.0 4.0 6.0 1.0 6.0 4.0 4.0 8.0 7.0 5.0 3.0 7.0 4.0 6.0 5.0 4.0 5.0 2.0 3.0 3.0 5.0 4.0 3.0 5.0 7.0 6.0 4.0 5.0 8.0
VERTEX_COVER:
1 2 6 7 9 10 13 14 15 17 18 22 25 26 29 30
EOF
